
Gurobi 7.5.2 (linux64) logging started Sat Jul  7 16:01:28 2018

Changed value of parameter LogFile to result/ilp/simNo_10-n_100-m_40-s_4-minVAF_0.05-cov_10000-k_2-fn_0.15-fp_0.0001-na_0.15.ILP.gurobiSolverLog
   Prev: gurobi.log  Default: 
Changed value of parameter TimeLimit to 86400.0
   Prev: 1e+100  Min: 0.0  Max: 1e+100  Default: 1e+100
Optimize a model with 639293 rows, 10765 columns and 1940420 nonzeros
Variable types: 0 continuous, 10765 integer (10765 binary)
Coefficient statistics:
  Matrix range     [2e-05, 4e+00]
  Objective range  [1e+00, 1e+01]
  Bounds range     [1e+00, 1e+00]
  RHS range        [3e-01, 2e+00]
Presolve removed 124285 rows and 922 columns (presolve time = 5s) ...
Presolve removed 124285 rows and 922 columns (presolve time = 10s) ...
Presolve removed 172462 rows and 1399 columns (presolve time = 15s) ...
Presolve removed 172462 rows and 1399 columns (presolve time = 20s) ...
Presolve removed 172462 rows and 1399 columns
Presolve time: 21.88s
Presolved: 466831 rows, 9366 columns, 1404918 nonzeros
Variable types: 0 continuous, 9366 integer (9366 binary)
Presolved: 9366 rows, 476197 columns, 1414284 nonzeros

Presolve removed 9366 rows and 476197 columns

Root simplex log...

Iteration    Objective       Primal Inf.    Dual Inf.      Time
       0    2.3716799e+01   0.000000e+00   8.295300e+04     29s
    9899   -1.7089397e+02   0.000000e+00   9.520231e+04     30s
   25935   -2.7544788e+02   0.000000e+00   1.292307e+05     35s
   42837   -3.2997041e+02   0.000000e+00   1.040567e+04     40s
   47846   -3.4500388e+02   0.000000e+00   0.000000e+00     42s
   47846   -3.4500388e+02   0.000000e+00   0.000000e+00     43s

Root relaxation: objective -3.450039e+02, 47846 iterations, 16.91 seconds
Total elapsed time = 105.53s
Total elapsed time = 119.96s
Total elapsed time = 162.50s

    Nodes    |    Current Node    |     Objective Bounds      |     Work
 Expl Unexpl |  Obj  Depth IntInf | Incumbent    BestBd   Gap | It/Node Time

     0     0 -345.00388    0 1549          - -345.00388      -     -  178s
H    0     0                    -482.3731743 -345.00388  28.5%     -  189s
H    0     0                    -453.5734195 -345.00388  23.9%     -  191s
H    0     0                    -440.3075949 -345.00388  21.6%     -  191s
     0     0 -350.80767    0 1568 -440.30759 -350.80767  20.3%     -  253s
H    0     0                    -428.6999984 -350.80767  18.2%     -  267s
     0     0 -351.22223    0 1450 -428.70000 -351.22223  18.1%     -  272s
     0     0 -357.06442    0 1533 -428.70000 -357.06442  16.7%     - 1680s
H    0     0                    -423.7253142 -357.06442  15.7%     - 1686s
     0     0 -357.45682    0 1506 -423.72531 -357.45682  15.6%     - 1714s
     0     0 -357.70873    0 1506 -423.72531 -357.70873  15.6%     - 1728s
     0     0 -357.83158    0 1514 -423.72531 -357.83158  15.6%     - 1738s
     0     0 -362.42728    0 1386 -423.72531 -362.42728  14.5%     - 2897s
     0     0 -362.42728    0 1239 -423.72531 -362.42728  14.5%     - 2904s
     0     0 -363.58842    0 1189 -423.72531 -363.58842  14.2%     - 3129s
     0     0 -364.11379    0 1350 -423.72531 -364.11379  14.1%     - 3249s
     0     0 -364.14592    0 1352 -423.72531 -364.14592  14.1%     - 3291s
     0     0 -367.45297    0 1527 -423.72531 -367.45297  13.3%     - 9193s
H    0     0                    -420.4088580 -367.45297  12.6%     - 9211s
     0     0 -368.17175    0 1524 -420.40886 -368.17175  12.4%     - 9440s
     0     0 -368.17516    0 1524 -420.40886 -368.17516  12.4%     - 9451s
     0     0 -368.18771    0 1522 -420.40886 -368.18771  12.4%     - 9466s
     0     0 -368.18771    0 1526 -420.40886 -368.18771  12.4%     - 9468s
     0     0 -370.09494    0 1220 -420.40886 -370.09494  12.0%     - 10512s
     0     0 -370.33067    0 1201 -420.40886 -370.33067  11.9%     - 10641s
     0     0 -370.46723    0 1193 -420.40886 -370.46723  11.9%     - 10674s
     0     0 -370.46723    0 1193 -420.40886 -370.46723  11.9%     - 10678s
     0     0 -371.80206    0 1374 -420.40886 -371.80206  11.6%     - 12510s
     0     0 -372.11472    0 1283 -420.40886 -372.11472  11.5%     - 12648s
     0     0 -372.24807    0 1300 -420.40886 -372.24807  11.5%     - 12768s
     0     0 -372.25844    0 1402 -420.40886 -372.25844  11.5%     - 12801s
     0     0 -372.25844    0 1416 -420.40886 -372.25844  11.5%     - 12806s
     0     0 -373.59234    0 1508 -420.40886 -373.59234  11.1%     - 22132s
     0     0 -373.90015    0 1526 -420.40886 -373.90015  11.1%     - 22199s
     0     0 -373.99141    0 1531 -420.40886 -373.99141  11.0%     - 22222s
     0     0 -374.04595    0 1532 -420.40886 -374.04595  11.0%     - 22230s
     0     0 -374.04595    0 1532 -420.40886 -374.04595  11.0%     - 22233s
     0     0 -376.06076    0 1287 -420.40886 -376.06076  10.5%     - 22428s
     0     0 -376.12214    0 1296 -420.40886 -376.12214  10.5%     - 22484s
     0     0 -376.12545    0 1297 -420.40886 -376.12545  10.5%     - 22492s
     0     0 -376.12545    0 1297 -420.40886 -376.12545  10.5%     - 22495s
     0     0 -376.36076    0 1545 -420.40886 -376.36076  10.5%     - 22607s
     0     0 -376.37543    0 1536 -420.40886 -376.37543  10.5%     - 22638s
     0     0 -376.47972    0 1542 -420.40886 -376.47972  10.4%     - 22675s
     0     0 -376.47972    0 1543 -420.40886 -376.47972  10.4%     - 22678s
     0     0 -378.15853    0 1512 -420.40886 -378.15853  10.0%     - 35205s
     0     0 -378.29241    0 1528 -420.40886 -378.29241  10.0%     - 35232s
     0     0 -378.34159    0 1512 -420.40886 -378.34159  10.0%     - 35238s
     0     0 -378.39277    0 1523 -420.40886 -378.39277  10.0%     - 35242s
     0     0 -378.39277    0 1524 -420.40886 -378.39277  10.0%     - 35244s
     0     0 -379.58177    0 1395 -420.40886 -379.58177  9.71%     - 35793s
     0     0 -379.97995    0 1530 -420.40886 -379.97995  9.62%     - 35841s
     0     0 -379.98892    0 1515 -420.40886 -379.98892  9.61%     - 35848s
     0     0 -379.99223    0 1521 -420.40886 -379.99223  9.61%     - 35852s
     0     0 -380.66547    0 1514 -420.40886 -380.66547  9.45%     - 35993s
     0     0 -380.73235    0 1523 -420.40886 -380.73235  9.44%     - 36025s
     0     0 -380.74230    0 1522 -420.40886 -380.74230  9.44%     - 36031s
     0     0 -381.49246    0 1507 -420.40886 -381.49246  9.26%     - 36218s
     0     0 -381.50624    0 1508 -420.40886 -381.50624  9.25%     - 36243s
     0     0 -381.51660    0 1535 -420.40886 -381.51660  9.25%     - 36255s
     0     0 -381.51789    0 1536 -420.40886 -381.51789  9.25%     - 36262s
     0     0 -383.86638    0 1663 -420.40886 -383.86638  8.69%     - 42888s
     0     0 -384.10005    0 1535 -420.40886 -384.10005  8.64%     - 43002s
     0     0 -384.14524    0 1401 -420.40886 -384.14524  8.63%     - 43067s
     0     0 -384.14524    0 1472 -420.40886 -384.14524  8.63%     - 43076s
     0     0 -384.40806    0 1453 -420.40886 -384.40806  8.56%     - 43522s
     0     0 -384.58952    0 1628 -420.40886 -384.58952  8.52%     - 44228s
     0     0 -384.72417    0 1644 -420.40886 -384.72417  8.49%     - 44350s
     0     0 -384.72417    0 1637 -420.40886 -384.72417  8.49%     - 44356s
     0     0 -384.91340    0 1610 -420.40886 -384.91340  8.44%     - 49109s
     0     0 -385.12062    0 1653 -420.40886 -385.12062  8.39%     - 49441s
     0     0 -385.53318    0 1660 -420.40886 -385.53318  8.30%     - 49601s
     0     0 -385.53318    0 1658 -420.40886 -385.53318  8.30%     - 49604s
     0     0 -386.22329    0 1645 -420.40886 -386.22329  8.13%     - 50990s
     0     0 -386.82907    0 1648 -420.40886 -386.82907  7.99%     - 51248s
     0     0 -386.95250    0 1651 -420.40886 -386.95250  7.96%     - 51591s
     0     0 -386.96725    0 1668 -420.40886 -386.96725  7.95%     - 51609s
     0     0 -386.99410    0 1655 -420.40886 -386.99410  7.95%     - 51652s
     0     0 -386.99677    0 1656 -420.40886 -386.99677  7.95%     - 51672s
     0     0 -387.99035    0 1526 -420.40886 -387.99035  7.71%     - 72966s
H    0     0                    -410.3687939 -387.99035  5.45%     - 72978s
     0     0 -388.27934    0 1535 -410.36879 -388.27934  5.38%     - 73090s
     0     0 -388.27934    0 1539 -410.36879 -388.27934  5.38%     - 73095s
     0     0 -388.69763    0 1534 -410.36879 -388.69763  5.28%     - 73396s
     0     0 -389.06143    0 1513 -410.36879 -389.06143  5.19%     - 73564s
     0     0 -389.06143    0 1513 -410.36879 -389.06143  5.19%     - 73572s
     0     0 -389.70991    0 1533 -410.36879 -389.70991  5.03%     - 74234s
H    0     0                    -405.3941096 -389.70991  3.87%     - 74249s
     0     0 -389.82153    0 1529 -405.39411 -389.82153  3.84%     - 74286s
     0     0 -389.87411    0 1541 -405.39411 -389.87411  3.83%     - 74334s
     0     0 -389.89435    0 1537 -405.39411 -389.89435  3.82%     - 74340s
     0     0 -389.89435    0 1543 -405.39411 -389.89435  3.82%     - 74344s
     0     0 -390.76676    0 1525 -405.39411 -390.76676  3.61%     - 74656s
     0     0 -391.05724    0 1533 -405.39411 -391.05724  3.54%     - 74943s
     0     0 -391.17624    0 1536 -405.39411 -391.17624  3.51%     - 74960s
     0     0 -391.18195    0 1542 -405.39411 -391.18195  3.51%     - 74970s
     0     0 -391.18438    0 1545 -405.39411 -391.18438  3.51%     - 74977s
     0     0 -391.95249    0 1544 -405.39411 -391.95249  3.32%     - 75321s
     0     0 -392.09828    0 1636 -405.39411 -392.09828  3.28%     - 75389s
     0     0 -392.10762    0 1627 -405.39411 -392.10762  3.28%     - 75396s
     0     0 -392.12715    0 1633 -405.39411 -392.12715  3.27%     - 75403s
     0     0 -392.14607    0 1638 -405.39411 -392.14607  3.27%     - 75413s
     0     0 -392.15288    0 1633 -405.39411 -392.15288  3.27%     - 75419s
     0     0 -392.15300    0 1616 -405.39411 -392.15300  3.27%     - 75424s
     0     0 -392.25804    0 1536 -405.39411 -392.25804  3.24%     - 75481s
     0     0 -392.28995    0 1526 -405.39411 -392.28995  3.23%     - 75513s
     0     0 -392.29545    0 1649 -405.39411 -392.29545  3.23%     - 75523s
     0     0 -392.29546    0 1652 -405.39411 -392.29546  3.23%     - 75527s
     0     0 -392.65748    0 1621 -405.39411 -392.65748  3.14%     - 75806s
     0     0 -392.70429    0 1611 -405.39411 -392.70429  3.13%     - 75837s
     0     0 -392.71569    0 1608 -405.39411 -392.71569  3.13%     - 75860s
     0     0 -392.72424    0 1610 -405.39411 -392.72424  3.13%     - 75882s
     0     0 -392.72853    0 1558 -405.39411 -392.72853  3.12%     - 75894s
     0     0 -393.01546    0 1601 -405.39411 -393.01546  3.05%     - 76115s
     0     0 -393.06952    0 1652 -405.39411 -393.06952  3.04%     - 76166s
     0     0 -393.07769    0 1654 -405.39411 -393.07769  3.04%     - 76177s
     0     0 -393.08267    0 1618 -405.39411 -393.08267  3.04%     - 76182s
     0     0 -393.08271    0 1617 -405.39411 -393.08271  3.04%     - 76185s
     0     0 -393.34309    0 1533 -405.39411 -393.34309  2.97%     - 76342s
     0     0 -393.44981    0 1667 -405.39411 -393.44981  2.95%     - 76417s
     0     0 -393.45632    0 1572 -405.39411 -393.45632  2.94%     - 76431s
     0     0 -393.45984    0 1626 -405.39411 -393.45984  2.94%     - 76436s
     0     0 -393.73244    0 1653 -405.39411 -393.73244  2.88%     - 76469s
     0     0 -393.75297    0 1625 -405.39411 -393.75297  2.87%     - 76491s
     0     0 -393.75441    0 1624 -405.39411 -393.75441  2.87%     - 76498s
     0     0 -393.75506    0 1623 -405.39411 -393.75506  2.87%     - 76512s
     0     0 -393.75520    0 1623 -405.39411 -393.75520  2.87%     - 76519s
     0     0 -393.78484    0 1601 -405.39411 -393.78484  2.86%     - 76787s
     0     0 -393.78484    0 1601 -405.39411 -393.78484  2.86%     - 76805s
     0     2 -393.78656    0 1600 -405.39411 -393.78656  2.86%     - 76977s
     1     3 -394.23271    1 1476 -405.39411 -393.78656  2.86% 11128 77006s
     2     4 -399.68101    2  715 -405.39411 -393.78656  2.86% 12596 77055s
     5     7 -402.16835    5  657 -405.39411 -393.78656  2.86%  5239 77061s
     7     7 -404.65569    6  679 -405.39411 -393.78656  2.86%  4350 77071s
     8     8 -403.82658    6  581 -405.39411 -393.78656  2.86%  4298 77089s
     9     9 -403.82658    7  581 -405.39411 -393.78656  2.86%  3827 77091s
    16     6     cutoff    1      -405.39411 -394.25028  2.75%  4861 77329s
    17     7 -403.12742    2 1048 -405.39411 -399.68101  1.41%  5932 77466s
    18     8 -404.84712    3  835 -405.39411 -399.68101  1.41%  5718 77477s
    20     8 -405.23146    4  802 -405.39411 -399.68101  1.41%  5161 77480s
    23     7 -403.73588    3  389 -405.39411 -399.68101  1.41%  4593 77488s
    24     8 -404.84137    4  327 -405.39411 -399.68101  1.41%  4435 77498s
    25     7     cutoff    4      -405.39411 -399.68101  1.41%  4282 77500s
    28     4     cutoff    3      -405.39411 -400.09556  1.31%  3870 77508s
    29     5 -402.17087    4  676 -405.39411 -402.17087  0.80%  3785 77518s
    30     6 -403.14733    5  878 -405.39411 -402.17837  0.79%  3671 77520s
    33     5 -404.65569    6  637 -405.39411 -403.82658  0.39%  3369 77525s

Cutting planes:
  Gomory: 2
  MIR: 1
  Zero half: 190

Explored 39 nodes (2526707 simplex iterations) in 77528.88 seconds
Thread count was 1 (of 80 available processors)

Solution count 8: -405.394 -410.369 -420.409 ... -482.373

Optimal solution found (tolerance 1.00e-04)
Best objective -4.053941096463e+02, best bound -4.053941096463e+02, gap 0.0000%
